1638342000
1638372900
1638514800
1638543600
1638774660
1638805260
1638946800
1638974756
1639119600
1639143900
1639378800
1639411620
1639983600
1640014200
1639551600
1639582200
1640156400
1640187000
1640242800
1640273400
